2
100 3
40
67 1 49
43 1 89
16 1 96
90 1 73
8 1 94
39 1 94
27 1 41
41 1 91
83 1 45
47 1 10
50 1 66
5 1 73
4 1 10
16 1 94
35 1 81
30 1 99
96 1 37
47 1 88
31 1 5
17 1 98
46 1 83
39 1 91
39 1 100
64 1 55
10 1 26
96 1 3
71 1 6
25 1 85
36 1 92
9 1 86
40 1 23
98 1 11
23 1 73
37 1 79
33 1 67
86 1 6
80 1 47
26 1 79
38 1 96
25 1 74
